(set-logic OBJ)

; ∀ x ∈ POS. Respect(x) = true
; ∀ x ∈ NEG. Respect(x) = false
(synth-fun Respect ((x OBJ)) Bool
    (
        (Start Bool (
            ; Or/And/Not
            (Or Start Start)
            (And Start Start)
            (Not Start)

            ; userdefined functions
			; Person
			(Male x)
			(AgeLess x StartAge)
			(AgeGreater x StartAge)
			(AgeEq x StartAge)
			(Orientation x StartOrientation)
			(Glasses x)
			(Hat x)
			(HoldObjectsInFront x)
			(Bag x StartBag)
			(TopStyle x StartTopStyle)
			(BottomStyle x StartBottomStyle)
			(ShortSleeve x)
			(LongSleeve x)
			(LongCoat x)
			(Trousers x)
			(Shorts x)
			(SkirtDress x)
			(Boots x)
        ))

        ; terminals
		;Person
		(StartOrientation String ("Front" "Back" "Side"))
		(StartBag String ("BackPack" "ShoulderBag" "HandBag" "NoBag"))
		(StartTopStyle String ("UpperStride" "UpperLogo" "UpperPlaid" "UpperSplice" "NoTopStyle"))
		(StartBottomStyle String ("BottomStripe" "BottomPattern" "NoBottomStyle"))
		(StartAge Int (0 17 18 19 20 21 22 23 24 25 26 27 29 30 31 32 33 34 35 36 37 38 39 40 41 42 43 45 46 47 49 50 52 54 56 58 60 63 64 68 69 71 74))
    )
)

; I/O
; +
(declare-var x1 OBJ)
; -
(declare-var x25 OBJ)
(declare-var x30 OBJ)
(declare-var x57 OBJ)
(declare-var x59 OBJ)

; facts
; userdefined args = {}
(constraint (= (Respect {"id": 1, "cls": "Person", "Male": True, "Age": 56, "Orientation": "Side", "Glasses": True, "Hat": True, "HoldObjectsInFront": False, "Bag": "NoBag", "TopStyle": "NoTopStyle", "BottomStyle": "NoBottomStyle", "ShortSleeve": True, "LongSleeve": False, "LongCoat": False, "Trousers": True, "Shorts": False, "SkirtDress": False, "Boots": True}) true))

(constraint (= (Respect {"id": 25, "cls": "Person", "Male": True, "Age": 34, "Orientation": "Side", "Glasses": False, "Hat": False, "HoldObjectsInFront": True, "Bag": "NoBag", "TopStyle": "NoTopStyle", "BottomStyle": "NoBottomStyle", "ShortSleeve": True, "LongSleeve": False, "LongCoat": False, "Trousers": True, "Shorts": False, "SkirtDress": False, "Boots": False}) false))
(constraint (= (Respect {"id": 30, "cls": "Person", "Male": True, "Age": 71, "Orientation": "Front", "Glasses": False, "Hat": True, "HoldObjectsInFront": False, "Bag": "NoBag", "TopStyle": "NoTopStyle", "BottomStyle": "NoBottomStyle", "ShortSleeve": False, "LongSleeve": False, "LongCoat": False, "Trousers": False, "Shorts": False, "SkirtDress": False, "Boots": False}) false))
(constraint (= (Respect {"id": 57, "cls": "Person", "Male": True, "Age": 56, "Orientation": "Front", "Glasses": False, "Hat": True, "HoldObjectsInFront": True, "Bag": "NoBag", "TopStyle": "NoTopStyle", "BottomStyle": "NoBottomStyle", "ShortSleeve": True, "LongSleeve": False, "LongCoat": False, "Trousers": False, "Shorts": False, "SkirtDress": False, "Boots": False}) false))
(constraint (= (Respect {"id": 59, "cls": "Person", "Male": True, "Age": 50, "Orientation": "Front", "Glasses": True, "Hat": False, "HoldObjectsInFront": False, "Bag": "NoBag", "TopStyle": "UpperLogo", "BottomStyle": "NoBottomStyle", "ShortSleeve": False, "LongSleeve": False, "LongCoat": False, "Trousers": False, "Shorts": False, "SkirtDress": False, "Boots": False}) false))

(check-synth)
